0 7 6 -1 -1 
8 7 5 -1 -1 
-1 3 9 -1 -1 
-1 10 -1 8 -1 
9 9 4 7 -1 
9 -1 10 -1 -1 
5 6 2 5 -1 
-1 -1 0 0 -1 
-1 7 7 3 -1 
2 2 -1 8 -1 
10 -1 7 10 -1 
-1 6 3 10 -1 
1 7 1 1 -1 
9 9 -1 2 -1 
3 0 3 2 -1 
